set VV := 0 1 2 3 4 5 6 7 8 9 10 11 12 13 14 15 16 17 18 19 20 21 22 23 24 25 26 27 28 29 30 31 32 33 34 35 36 37 38 39 40 41 ;
set VS := 0 1 2 3 4 5 6 7 8 9 10 11 12 13 14 15 16 17 18 19 20 21 22 23 24 25 26 27 28 29 30 31 32 33 34 35 36 37 38 39 40 41 42 43 44 45 46 47 48 49 50 51 52 53 54 55 56 57 58 59 60 61 62 63 64 65 66 67 68 69 70 71 72 73 74 75 76 77 78 79 80 81 82 83 84 85 86 87 88 ;
param cv := 
0 11
1 16
2 15
3 16
4 13
5 15
6 10
7 17
8 23
9 10
10 22
11 25
12 13
13 12
14 17
15 24
16 16
17 17
18 17
19 22
20 20
21 11
22 14
23 22
24 11
25 12
26 12
27 11
28 12
29 17
30 17
31 12
32 11
33 18
34 14
35 21
36 19
37 17
38 14
39 15
40 13
41 17
;
param cs := 
0 34
1 37
2 36
3 28
4 35
5 37
6 31
7 36
8 26
9 25
10 24
11 35
12 22
13 20
14 32
15 24
16 30
17 30
18 21
19 25
20 23
21 39
22 22
23 33
24 23
25 31
26 31
27 24
28 35
29 38
30 20
31 25
32 38
33 38
34 38
35 34
36 24
37 34
38 26
39 34
40 25
41 34
42 23
43 39
44 32
45 21
46 21
47 29
48 37
49 40
50 24
51 20
52 21
53 25
54 20
55 23
56 33
57 28
58 37
59 39
60 24
61 27
62 28
63 21
64 38
65 34
66 21
67 37
68 33
69 24
70 40
71 26
72 31
73 35
74 29
75 32
76 33
77 24
78 28
79 38
80 28
81 29
82 34
83 38
84 37
85 39
86 31
87 35
88 25
;
param bv:	 0 1 2 3 4 5 6 7 8 9 10 11 12 13 14 15 16 17 18 19 20 21 22 23 24 25 26 27 28 29 30 31 32 33 34 35 36 37 38 39 40 41 := 
		0 0 0 13 0 0 18 0 0 0 0 0 0 0 0 15 0 0 0 12 0 0 0 0 0 0 0 16 15 0 0 0 0 0 0 0 0 0 0 0 17 0 0 
		1 0 0 0 0 0 0 0 18 0 0 0 0 0 0 17 0 0 0 0 0 0 0 0 0 0 0 0 0 0 0 0 15 0 0 18 0 0 0 10 11 0 0 
		2 0 0 0 0 0 0 0 0 0 0 0 0 0 0 0 0 0 0 0 0 0 0 0 18 0 0 0 0 0 0 0 0 0 0 0 0 0 0 0 0 0 14 
		3 0 0 0 0 0 0 15 18 0 0 0 0 0 0 0 0 0 0 0 0 0 0 0 0 0 0 0 11 0 0 0 0 0 0 0 19 0 0 13 0 0 0 
		4 0 0 0 0 0 0 0 0 22 0 16 0 0 0 0 0 0 0 0 0 0 0 0 0 0 0 0 11 0 0 0 0 0 20 18 0 0 0 0 0 0 0 
		5 0 0 0 0 0 0 0 0 0 0 19 0 0 0 0 0 22 15 0 0 0 0 0 0 0 15 0 0 0 25 0 0 0 0 0 0 0 0 0 0 0 0 
		6 0 0 0 0 0 0 0 0 0 15 0 0 0 0 0 0 0 0 0 0 0 0 16 0 0 0 0 0 0 0 0 0 0 0 0 0 20 0 0 0 0 0 
		7 0 0 0 0 0 0 0 0 16 0 0 24 17 0 0 0 0 0 0 0 0 0 0 10 0 0 0 0 0 12 0 0 20 0 0 0 0 0 0 0 0 18 
		8 0 0 0 0 0 0 0 0 0 0 0 0 0 0 12 0 0 0 0 0 0 0 0 0 0 24 0 23 0 0 0 0 0 0 0 0 0 12 0 0 0 0 
		9 0 0 0 0 0 0 0 0 0 0 0 0 25 0 0 0 0 0 18 16 0 14 0 0 12 0 0 0 10 0 0 0 0 0 0 0 25 0 0 0 0 0 
		10 0 0 0 0 0 0 0 0 0 0 0 0 0 0 0 0 0 0 0 0 0 0 0 18 0 13 20 0 19 0 0 0 0 0 17 0 0 0 0 0 0 0 
		11 0 0 0 0 0 0 0 0 0 0 0 0 23 0 0 17 0 0 0 0 0 0 0 0 0 0 0 13 0 22 0 0 13 0 0 0 0 0 0 0 0 0 
		12 0 0 0 0 0 0 0 0 0 0 0 0 0 0 0 0 0 0 0 10 0 0 0 0 0 0 0 0 0 0 0 0 0 0 0 0 0 0 18 10 0 0 
		13 0 0 0 0 0 0 0 0 0 0 0 0 0 0 0 0 0 0 0 0 0 22 0 0 0 0 0 0 0 0 0 0 0 0 0 0 15 0 0 0 0 0 
		14 0 0 0 0 0 0 0 0 0 0 0 0 0 0 0 0 0 0 0 0 0 0 0 0 10 0 0 0 0 0 0 0 0 0 25 22 0 0 0 0 14 24 
		15 0 0 0 0 0 0 0 0 0 0 0 0 0 0 0 0 0 0 0 0 0 0 0 0 0 0 0 19 11 0 0 0 0 0 0 0 0 0 0 0 0 0 
		16 0 0 0 0 0 0 0 0 0 0 0 0 0 0 0 0 0 0 0 0 0 0 0 0 0 0 0 0 0 0 0 0 25 0 0 0 0 0 0 0 0 0 
		17 0 0 0 0 0 0 0 0 0 0 0 0 0 0 0 0 0 0 0 0 0 0 0 0 0 0 0 0 0 0 13 0 0 0 24 0 0 0 0 0 16 0 
		18 0 0 0 0 0 0 0 0 0 0 0 0 0 0 0 0 0 0 0 0 0 0 0 0 0 0 0 0 25 0 0 0 0 0 0 0 21 0 0 0 0 0 
		19 0 0 0 0 0 0 0 0 0 0 0 0 0 0 0 0 0 0 0 0 21 0 0 0 11 18 0 0 0 0 0 0 0 0 0 0 13 20 0 0 0 19 
		20 0 0 0 0 0 0 0 0 0 0 0 0 0 0 0 0 0 0 0 0 0 0 0 0 0 0 0 0 0 0 0 0 0 0 0 0 0 0 0 0 0 0 
		21 0 0 0 0 0 0 0 0 0 0 0 0 0 0 0 0 0 0 0 0 0 0 0 0 25 0 0 0 0 0 0 0 0 0 0 0 10 0 13 0 22 0 
		22 0 0 0 0 0 0 0 0 0 0 0 0 0 0 0 0 0 0 0 0 0 0 0 0 0 0 0 0 0 0 0 0 0 0 0 0 0 0 0 0 0 0 
		23 0 0 0 0 0 0 0 0 0 0 0 0 0 0 0 0 0 0 0 0 0 0 0 0 0 0 0 0 0 11 20 10 0 0 0 0 0 16 20 15 0 0 
		24 0 0 0 0 0 0 0 0 0 0 0 0 0 0 0 0 0 0 0 0 0 0 0 0 0 0 0 0 0 0 0 0 0 0 10 0 17 0 0 0 0 0 
		25 0 0 0 0 0 0 0 0 0 0 0 0 0 0 0 0 0 0 0 0 0 0 0 0 0 0 0 24 23 0 0 0 0 21 0 0 0 0 0 0 0 0 
		26 0 0 0 0 0 0 0 0 0 0 0 0 0 0 0 0 0 0 0 0 0 0 0 0 0 0 0 0 0 0 14 0 0 0 0 0 0 0 0 0 15 0 
		27 0 0 0 0 0 0 0 0 0 0 0 0 0 0 0 0 0 0 0 0 0 0 0 0 0 0 0 0 0 0 0 0 0 0 0 0 0 24 0 0 21 0 
		28 0 0 0 0 0 0 0 0 0 0 0 0 0 0 0 0 0 0 0 0 0 0 0 0 0 0 0 0 0 0 0 0 0 21 0 0 0 0 0 0 0 0 
		29 0 0 0 0 0 0 0 0 0 0 0 0 0 0 0 0 0 0 0 0 0 0 0 0 0 0 0 0 0 0 0 0 23 0 0 0 0 0 0 0 20 0 
		30 0 0 0 0 0 0 0 0 0 0 0 0 0 0 0 0 0 0 0 0 0 0 0 0 0 0 0 0 0 0 0 0 0 0 0 22 0 0 0 0 0 0 
		31 0 0 0 0 0 0 0 0 0 0 0 0 0 0 0 0 0 0 0 0 0 0 0 0 0 0 0 0 0 0 0 0 0 0 0 0 0 0 0 0 0 0 
		32 0 0 0 0 0 0 0 0 0 0 0 0 0 0 0 0 0 0 0 0 0 0 0 0 0 0 0 0 0 0 0 0 0 0 0 0 0 0 0 24 0 22 
		33 0 0 0 0 0 0 0 0 0 0 0 0 0 0 0 0 0 0 0 0 0 0 0 0 0 0 0 0 0 0 0 0 0 0 0 0 0 0 0 0 0 0 
		34 0 0 0 0 0 0 0 0 0 0 0 0 0 0 0 0 0 0 0 0 0 0 0 0 0 0 0 0 0 0 0 0 0 0 0 0 0 13 0 0 0 0 
		35 0 0 0 0 0 0 0 0 0 0 0 0 0 0 0 0 0 0 0 0 0 0 0 0 0 0 0 0 0 0 0 0 0 0 0 0 0 0 0 0 19 0 
		36 0 0 0 0 0 0 0 0 0 0 0 0 0 0 0 0 0 0 0 0 0 0 0 0 0 0 0 0 0 0 0 0 0 0 0 0 0 0 12 0 0 0 
		37 0 0 0 0 0 0 0 0 0 0 0 0 0 0 0 0 0 0 0 0 0 0 0 0 0 0 0 0 0 0 0 0 0 0 0 0 0 0 0 0 0 0 
		38 0 0 0 0 0 0 0 0 0 0 0 0 0 0 0 0 0 0 0 0 0 0 0 0 0 0 0 0 0 0 0 0 0 0 0 0 0 0 0 19 0 11 
		39 0 0 0 0 0 0 0 0 0 0 0 0 0 0 0 0 0 0 0 0 0 0 0 0 0 0 0 0 0 0 0 0 0 0 0 0 0 0 0 0 0 0 
		40 0 0 0 0 0 0 0 0 0 0 0 0 0 0 0 0 0 0 0 0 0 0 0 0 0 0 0 0 0 0 0 0 0 0 0 0 0 0 0 0 0 12 
		41 0 0 0 0 0 0 0 0 0 0 0 0 0 0 0 0 0 0 0 0 0 0 0 0 0 0 0 0 0 0 0 0 0 0 0 0 0 0 0 0 0 0 
;
param bs:	 0 1 2 3 4 5 6 7 8 9 10 11 12 13 14 15 16 17 18 19 20 21 22 23 24 25 26 27 28 29 30 31 32 33 34 35 36 37 38 39 40 41 42 43 44 45 46 47 48 49 50 51 52 53 54 55 56 57 58 59 60 61 62 63 64 65 66 67 68 69 70 71 72 73 74 75 76 77 78 79 80 81 82 83 84 85 86 87 88 := 
		0 0 30 0 0 23 0 0 0 0 0 0 0 0 0 30 0 0 0 0 0 0 0 0 0 0 0 25 31 0 0 0 0 0 0 0 0 0 0 0 0 0 33 0 0 0 0 0 0 36 0 0 0 0 0 0 0 0 0 0 0 0 0 0 0 0 0 0 0 38 0 0 33 0 33 0 0 0 0 0 36 0 20 0 37 0 0 0 0 0 
		1 30 0 0 0 30 29 0 0 0 0 0 0 0 0 0 0 0 0 25 26 0 0 0 0 0 29 40 0 0 0 0 38 0 0 0 0 0 0 0 0 0 0 0 0 0 0 0 0 37 0 0 0 0 0 0 0 0 0 24 0 0 0 0 0 0 0 0 26 0 0 0 0 0 23 0 0 0 0 0 0 0 29 24 0 0 0 0 0 0 
		2 0 0 0 0 0 0 0 0 0 0 0 0 0 0 0 0 0 0 0 0 0 0 0 37 0 0 0 0 0 0 0 0 0 0 0 0 0 0 0 0 0 0 37 0 0 0 0 0 0 0 0 0 0 0 0 0 0 0 0 31 0 0 0 0 0 0 0 0 0 0 0 0 0 0 0 0 0 0 0 0 0 0 0 0 0 0 0 0 0 
		3 0 0 0 0 0 0 0 37 0 0 0 0 0 39 0 0 0 0 0 0 0 0 0 37 0 0 29 0 21 0 0 0 0 0 0 0 0 37 0 0 0 0 0 0 0 39 0 0 0 0 0 0 0 0 0 0 0 0 0 0 0 0 21 0 0 0 0 0 34 0 0 0 0 0 0 0 0 0 0 0 0 0 0 0 0 0 0 20 0 
		4 23 30 0 0 0 0 0 0 30 0 38 0 0 0 0 25 0 0 36 0 0 0 0 0 0 0 0 0 0 0 0 0 21 0 0 0 0 30 24 0 0 0 0 0 0 0 0 0 0 0 0 0 25 0 0 0 0 0 0 0 0 21 0 0 0 0 0 0 0 0 29 0 0 33 0 0 0 31 0 0 0 0 0 0 0 0 0 0 0 
		5 0 29 0 0 0 0 0 0 0 0 0 0 0 0 0 0 0 0 0 0 0 29 0 0 0 0 0 0 0 0 0 32 0 38 0 0 0 0 0 0 0 0 0 0 0 0 0 29 0 0 0 0 0 0 0 0 0 0 0 0 0 0 0 0 20 0 0 0 0 0 0 0 0 22 0 0 0 0 0 0 0 0 0 0 0 35 0 0 0 
		6 0 0 0 0 0 0 0 0 32 36 0 0 0 0 0 0 0 0 0 0 0 0 30 0 0 0 0 0 0 0 0 0 0 0 0 0 0 0 0 0 36 0 0 0 0 0 0 0 0 24 0 0 0 0 0 0 0 0 0 0 0 0 0 0 0 26 0 0 0 0 0 0 0 0 0 0 0 0 0 0 0 0 0 0 0 0 0 0 0 
		7 0 0 0 37 0 0 0 0 29 0 25 0 0 36 0 0 0 0 31 0 0 0 0 0 0 0 0 0 0 0 0 0 0 0 0 0 20 0 0 0 0 0 0 0 0 27 0 0 0 32 0 0 0 0 0 0 0 34 0 0 0 0 0 0 0 0 20 0 0 0 0 0 0 0 0 28 0 0 0 0 0 0 0 0 33 0 0 0 0 
		8 0 0 0 0 30 0 32 29 0 0 0 0 0 0 0 0 0 0 0 0 0 0 0 0 20 0 0 0 0 0 0 0 0 0 0 0 36 0 0 0 30 0 0 20 0 21 0 23 0 0 0 0 0 0 0 27 0 0 0 0 0 0 0 0 0 0 22 0 0 0 0 0 0 0 0 0 36 0 33 0 0 0 23 0 0 0 0 0 40 
		9 0 0 0 0 0 0 36 0 0 0 0 0 26 0 0 0 0 0 38 0 0 36 0 0 39 0 0 0 0 0 0 0 0 0 0 0 0 0 0 0 0 20 39 0 0 0 0 0 25 0 0 0 25 0 0 0 0 0 0 28 0 0 0 0 0 0 0 0 0 0 0 31 0 0 0 0 0 20 0 0 0 0 0 0 0 0 0 0 30 
		10 0 0 0 0 38 0 0 25 0 0 0 0 36 0 0 30 34 33 0 0 0 0 0 0 0 0 22 38 0 32 0 0 0 0 31 0 22 0 0 0 0 0 0 0 0 0 0 0 0 0 0 0 0 0 0 30 0 0 0 0 40 0 0 0 0 0 0 0 0 0 0 0 0 0 0 0 0 0 0 0 0 0 0 22 23 0 0 0 0 
		11 0 0 0 0 0 0 0 0 0 0 0 0 0 0 0 0 0 0 0 0 0 0 0 0 0 0 0 0 0 0 0 0 0 0 0 0 0 0 0 0 0 0 0 0 0 0 0 0 0 0 0 0 0 0 27 0 0 0 0 0 0 0 0 0 30 20 0 0 0 0 0 20 0 38 0 0 0 0 0 0 0 23 0 33 0 0 0 0 0 
		12 0 0 0 0 0 0 0 0 0 26 36 0 0 0 0 0 0 0 0 0 0 34 0 0 0 0 0 0 0 0 0 0 26 0 0 0 0 34 0 0 0 21 0 0 0 0 0 0 0 0 0 0 0 0 0 0 0 0 0 25 0 0 0 0 0 35 0 0 0 0 0 0 0 0 0 0 0 39 34 0 0 0 0 0 0 0 0 28 39 
		13 0 0 0 39 0 0 0 36 0 0 0 0 0 0 38 0 27 0 0 26 0 0 0 0 0 0 0 0 0 0 0 0 0 0 0 0 0 0 0 0 40 28 0 0 0 0 0 0 0 0 0 0 0 0 0 0 0 0 0 0 0 0 0 0 0 0 0 0 0 0 0 0 0 0 0 34 0 0 0 0 0 0 0 0 0 0 0 0 0 
		14 30 0 0 0 0 0 0 0 0 0 0 0 0 38 0 0 0 0 0 0 0 0 0 0 0 0 0 0 0 33 0 29 21 0 0 0 0 0 0 0 0 0 0 0 0 0 0 0 0 0 0 0 0 0 0 0 0 0 0 0 0 0 0 0 40 0 0 0 0 0 0 23 0 0 0 0 31 0 0 0 27 0 0 28 0 40 0 34 0 
		15 0 0 0 0 25 0 0 0 0 0 30 0 0 0 0 0 0 0 0 0 0 0 0 0 0 0 0 0 0 0 0 0 0 0 0 0 0 0 35 0 0 0 0 0 0 0 0 0 0 0 0 0 0 0 0 0 0 0 0 0 0 0 0 0 0 0 0 0 0 0 34 0 0 0 0 0 0 0 0 0 0 0 0 0 0 0 0 0 0 
		16 0 0 0 0 0 0 0 0 0 0 34 0 0 27 0 0 0 0 0 0 36 0 31 0 0 22 0 0 0 0 0 0 0 0 0 0 0 0 0 32 0 0 0 31 0 0 0 0 0 0 0 0 0 0 0 0 0 0 0 0 0 0 0 0 0 21 20 0 0 0 0 0 0 0 0 0 24 0 0 0 0 0 0 0 0 0 0 0 0 
		17 0 0 0 0 0 0 0 0 0 0 33 0 0 0 0 0 0 0 0 0 0 0 0 0 34 0 0 0 0 0 0 0 39 0 0 0 0 40 0 0 0 0 0 0 0 0 0 0 0 0 0 0 0 0 0 0 0 0 0 0 0 0 0 0 0 0 0 0 0 0 0 0 0 0 0 0 0 0 0 0 0 40 20 0 0 0 0 0 0 
		18 0 25 0 0 36 0 0 31 0 38 0 0 0 0 0 0 0 0 0 0 0 0 0 0 0 0 0 26 0 0 0 0 36 0 0 0 0 0 33 0 0 0 0 0 0 0 0 23 0 0 0 0 0 0 0 0 0 0 0 0 0 0 0 0 0 0 0 0 0 0 24 0 0 0 0 0 0 0 0 0 0 0 0 21 39 0 32 0 0 
		19 0 26 0 0 0 0 0 0 0 0 0 0 0 26 0 0 0 0 0 0 29 0 0 0 0 0 0 34 0 0 0 0 0 0 0 0 0 0 0 0 0 0 0 0 0 0 0 0 24 0 0 0 0 31 0 0 0 0 0 0 0 0 0 0 0 0 0 0 0 0 0 39 0 0 36 0 0 0 0 0 0 0 0 0 0 0 39 0 0 
		20 0 0 0 0 0 0 0 0 0 0 0 0 0 0 0 0 36 0 0 29 0 0 0 0 0 0 0 35 0 0 0 0 0 20 21 27 39 0 20 0 0 0 0 0 0 33 0 0 0 0 0 0 0 0 0 0 0 0 0 23 0 0 0 22 0 0 0 0 0 0 0 0 0 0 0 22 25 0 0 0 22 0 0 0 0 0 0 0 0 
		21 0 0 0 0 0 29 0 0 0 36 0 0 34 0 0 0 0 0 0 0 0 0 0 0 0 0 0 36 0 0 0 0 37 0 0 0 0 0 0 0 0 0 0 0 0 0 0 0 0 29 35 0 0 0 0 0 0 0 0 20 0 35 0 0 0 0 0 0 0 0 0 21 0 0 20 0 0 0 0 0 0 0 0 0 0 0 0 0 0 
		22 0 0 0 0 0 0 30 0 0 0 0 0 0 0 0 0 31 0 0 0 0 0 0 0 0 0 0 0 0 0 0 0 0 0 0 0 0 0 0 0 0 0 0 37 0 29 0 0 0 0 20 0 0 0 0 0 0 0 0 0 0 0 0 0 0 0 20 0 0 0 27 0 0 0 0 0 29 0 22 0 0 0 0 0 0 0 0 0 0 
		23 0 0 37 37 0 0 0 0 0 0 0 0 0 0 0 0 0 0 0 0 0 0 0 0 0 0 0 0 0 0 0 0 0 0 33 0 0 0 0 20 0 0 0 0 0 0 0 0 0 0 0 0 32 0 0 0 0 0 0 0 0 30 0 0 0 0 0 0 0 0 0 31 0 0 0 27 0 0 0 0 0 0 0 0 0 0 0 0 0 
		24 0 0 0 0 0 0 0 0 20 39 0 0 0 0 0 0 0 34 0 0 0 0 0 0 0 0 0 34 0 0 0 0 0 0 0 0 0 0 0 0 0 0 0 0 0 0 0 0 0 0 0 0 0 31 0 0 0 40 0 0 0 0 0 0 0 0 0 0 0 0 0 28 0 0 0 27 0 0 0 0 0 0 0 27 0 0 22 0 27 
		25 0 29 0 0 0 0 0 0 0 0 0 0 0 0 0 0 22 0 0 0 0 0 0 0 0 0 0 0 0 0 0 0 0 0 0 0 39 0 0 0 0 0 0 0 0 0 0 0 0 0 0 40 0 0 0 0 0 0 0 0 0 0 20 0 0 40 0 0 0 0 24 0 0 0 0 0 0 0 0 0 0 0 0 0 0 0 0 0 0 
		26 25 40 0 29 0 0 0 0 0 0 22 0 0 0 0 0 0 0 0 0 0 0 0 0 0 0 0 0 0 0 0 0 22 0 0 24 0 38 22 0 0 0 0 0 0 0 0 0 30 0 0 0 0 0 0 0 26 0 22 0 0 0 0 20 0 0 0 22 0 0 0 0 0 0 0 0 0 0 0 0 0 31 0 37 0 0 0 0 0 
		27 31 0 0 0 0 0 0 0 0 0 38 0 0 0 0 0 0 0 26 34 35 36 0 0 34 0 0 0 0 0 0 0 0 0 0 0 35 0 26 0 0 0 0 32 0 0 0 0 0 0 0 27 0 0 0 0 0 0 0 0 0 0 0 0 0 0 0 0 0 0 0 37 0 0 0 0 0 0 0 0 0 0 0 0 0 0 39 0 0 
		28 0 0 0 21 0 0 0 0 0 0 0 0 0 0 0 0 0 0 0 0 0 0 0 0 0 0 0 0 0 0 0 0 0 0 0 0 0 30 27 0 0 0 0 0 0 0 0 0 0 24 0 0 0 0 0 0 0 0 0 0 0 0 0 0 0 22 0 0 0 0 0 0 0 0 0 0 0 0 0 0 0 0 0 0 0 0 0 38 0 
		29 0 0 0 0 0 0 0 0 0 0 32 0 0 0 33 0 0 0 0 0 0 0 0 0 0 0 0 0 0 0 0 0 0 22 0 0 0 0 0 0 0 0 0 0 0 0 0 0 0 0 0 0 0 0 0 0 0 0 0 0 0 0 0 0 0 0 0 0 0 0 0 0 23 0 0 0 0 0 23 0 0 0 0 0 0 0 0 0 0 
		30 0 0 0 0 0 0 0 0 0 0 0 0 0 0 0 0 0 0 0 0 0 0 0 0 0 0 0 0 0 0 0 0 28 26 0 0 0 0 0 0 0 0 0 0 0 0 0 0 0 0 0 0 0 0 26 0 0 0 31 31 0 0 0 0 0 0 0 0 0 0 0 0 0 0 0 0 0 0 0 0 0 0 0 0 0 0 0 0 29 
		31 0 38 0 0 0 32 0 0 0 0 0 0 0 0 29 0 0 0 0 0 0 0 0 0 0 0 0 0 0 0 0 0 22 40 0 0 0 0 0 0 0 0 0 0 0 0 0 0 23 0 0 0 0 0 27 0 0 0 39 0 0 0 0 0 0 0 0 0 0 0 0 24 0 23 0 0 0 0 0 0 0 0 0 0 0 0 0 0 0 
		32 0 0 0 0 21 0 0 0 0 0 0 0 26 0 21 0 0 39 36 0 0 37 0 0 0 0 22 0 0 0 28 22 0 0 0 0 0 0 0 0 0 0 0 0 0 0 0 0 0 0 0 0 33 0 0 0 0 0 0 0 0 0 0 0 0 0 0 0 22 0 0 32 24 28 0 0 0 0 0 40 0 39 0 0 0 0 39 0 31 
		33 0 0 0 0 0 38 0 0 0 0 0 0 0 0 0 0 0 0 0 0 20 0 0 0 0 0 0 0 0 22 26 40 0 0 0 0 0 0 0 0 0 0 0 0 0 0 0 0 0 0 0 0 0 0 24 0 0 0 0 0 0 0 0 0 0 0 0 0 0 0 0 0 0 0 0 0 0 0 0 0 37 24 0 0 0 24 0 0 0 
		34 0 0 0 0 0 0 0 0 0 0 31 0 0 0 0 0 0 0 0 0 21 0 0 33 0 0 0 0 0 0 0 0 0 0 0 0 0 0 0 0 0 38 0 0 0 0 0 0 0 0 0 27 0 27 0 0 0 0 40 0 0 0 0 0 0 0 0 0 0 0 0 0 0 0 0 0 0 0 0 33 0 26 0 0 0 0 0 0 0 
		35 0 0 0 0 0 0 0 0 0 0 0 0 0 0 0 0 0 0 0 0 27 0 0 0 0 0 24 0 0 0 0 0 0 0 0 0 0 0 0 0 0 0 0 0 0 0 0 0 34 0 0 0 0 0 35 0 0 0 0 0 36 0 0 0 0 0 0 0 36 0 0 0 0 0 0 0 0 36 0 0 0 0 0 0 0 31 0 0 0 
		36 0 0 0 0 0 0 0 20 36 0 22 0 0 0 0 0 0 0 0 0 39 0 0 0 0 39 0 35 0 0 0 0 0 0 0 0 0 0 0 0 0 0 0 0 35 0 0 0 0 0 0 0 0 0 0 0 0 28 0 0 0 0 0 0 0 0 0 0 0 0 25 25 0 0 0 22 0 0 0 0 0 0 0 31 0 0 0 0 0 
		37 0 0 0 37 30 0 0 0 0 0 0 0 34 0 0 0 0 40 0 0 0 0 0 0 0 0 38 0 30 0 0 0 0 0 0 0 0 0 0 0 29 24 0 0 0 27 0 0 0 0 0 0 0 0 0 0 0 0 0 0 0 0 0 0 0 0 0 0 0 0 0 0 0 0 0 0 0 0 0 24 0 0 0 0 0 0 0 0 0 
		38 0 0 0 0 24 0 0 0 0 0 0 0 0 0 0 35 0 0 33 0 20 0 0 0 0 0 22 26 27 0 0 0 0 0 0 0 0 0 0 0 0 0 0 0 27 0 0 0 0 0 0 0 0 0 0 0 0 32 0 0 0 0 26 35 27 30 0 0 0 0 31 0 0 0 0 0 0 0 0 0 0 0 0 0 0 0 0 0 0 
		39 0 0 0 0 0 0 0 0 0 0 0 0 0 0 0 0 32 0 0 0 0 0 0 20 0 0 0 0 0 0 0 0 0 0 0 0 0 0 0 0 0 0 0 0 0 0 0 0 0 0 0 0 0 0 0 0 0 0 0 0 0 0 0 0 0 0 0 0 0 0 0 0 0 0 0 0 0 0 0 0 0 0 0 0 0 0 0 0 0 
		40 0 0 0 0 0 0 36 0 30 0 0 0 0 40 0 0 0 0 0 0 0 0 0 0 0 0 0 0 0 0 0 0 0 0 0 0 0 29 0 0 0 0 0 0 0 0 0 0 0 0 0 0 0 0 0 0 0 0 0 0 0 0 0 0 0 0 0 0 26 0 0 0 0 0 0 0 0 0 0 24 0 0 0 0 0 0 0 0 0 
		41 33 0 0 0 0 0 0 0 0 20 0 0 21 28 0 0 0 0 0 0 0 0 0 0 0 0 0 0 0 0 0 0 0 0 38 0 0 24 0 0 0 0 0 0 0 0 0 0 0 0 0 0 0 0 0 0 0 0 0 31 0 28 0 0 0 0 0 0 0 0 0 0 0 0 0 0 0 0 0 0 0 0 38 0 0 0 0 0 31 
		42 0 0 37 0 0 0 0 0 0 39 0 0 0 0 0 0 0 0 0 0 0 0 0 0 0 0 0 0 0 0 0 0 0 0 0 0 0 0 0 0 0 0 0 0 0 0 0 0 0 0 25 0 0 36 0 0 0 0 0 0 0 0 34 0 0 0 0 0 0 0 0 0 0 0 0 0 0 0 0 0 0 0 0 0 0 0 0 0 0 
		43 0 0 0 0 0 0 0 0 20 0 0 0 0 0 0 0 31 0 0 0 0 0 37 0 0 0 0 32 0 0 0 0 0 0 0 0 0 0 0 0 0 0 0 0 0 0 0 0 0 32 0 0 0 0 0 0 0 0 0 0 29 0 0 0 0 20 0 0 0 0 0 0 0 34 0 28 0 0 0 0 0 0 0 0 37 0 0 0 0 
		44 0 0 0 0 0 0 0 0 0 0 0 0 0 0 0 0 0 0 0 0 0 0 0 0 0 0 0 0 0 0 0 0 0 0 0 0 35 0 27 0 0 0 0 0 0 0 0 0 0 0 0 0 0 0 0 0 0 0 0 0 0 0 0 0 0 0 36 0 0 0 0 0 0 0 0 0 0 0 0 0 0 0 0 0 0 0 0 0 0 
		45 0 0 0 39 0 0 0 27 21 0 0 0 0 0 0 0 0 0 0 0 33 0 29 0 0 0 0 0 0 0 0 0 0 0 0 0 0 27 0 0 0 0 0 0 0 0 0 0 0 0 0 0 0 0 0 0 0 0 38 0 0 0 26 0 0 24 25 0 0 0 21 0 0 0 0 0 34 0 0 0 0 0 0 0 0 0 0 0 0 
		46 0 0 0 0 0 0 0 0 0 0 0 0 0 0 0 0 0 0 0 0 0 0 0 0 0 0 0 0 0 0 0 0 0 0 0 0 0 0 0 0 0 0 0 0 0 0 0 0 0 0 0 0 0 0 0 0 0 0 0 0 0 0 0 35 0 0 0 0 0 0 0 0 0 0 0 0 0 0 0 0 0 0 0 0 36 0 0 0 0 
		47 0 0 0 0 0 29 0 0 23 0 0 0 0 0 0 0 0 0 23 0 0 0 0 0 0 0 0 0 0 0 0 0 0 0 0 0 0 0 0 0 0 0 0 0 0 0 0 0 0 0 0 0 0 0 0 0 0 0 0 0 0 0 0 27 0 0 0 22 0 0 34 0 0 0 0 0 0 0 0 0 0 0 0 0 0 0 0 0 0 
		48 36 37 0 0 0 0 0 0 0 25 0 0 0 0 0 0 0 0 0 24 0 0 0 0 0 0 30 0 0 0 0 23 0 0 0 34 0 0 0 0 0 0 0 0 0 0 0 0 0 0 0 0 0 23 0 0 39 0 22 0 0 0 0 38 0 0 0 0 0 0 34 0 0 0 0 0 21 0 0 0 0 0 0 0 0 39 0 0 0 
		49 0 0 0 0 0 0 24 32 0 0 0 0 0 0 0 0 0 0 0 0 0 29 0 0 0 0 0 0 24 0 0 0 0 0 0 0 0 0 0 0 0 0 0 32 0 0 0 0 0 0 36 0 0 0 29 0 0 0 0 0 0 0 0 0 0 21 21 0 0 0 0 0 0 0 0 0 0 0 0 0 0 0 0 29 0 0 0 0 0 
		50 0 0 0 0 0 0 0 0 0 0 0 0 0 0 0 0 0 0 0 0 0 35 20 0 0 0 0 0 0 0 0 0 0 0 0 0 0 0 0 0 0 0 25 0 0 0 0 0 0 36 0 0 0 24 0 0 0 0 0 0 0 0 0 0 0 0 0 0 0 0 0 0 0 0 0 0 0 0 0 0 0 0 0 0 0 34 0 0 0 
		51 0 0 0 0 0 0 0 0 0 0 0 0 0 0 0 0 0 0 0 0 0 0 0 0 0 40 0 27 0 0 0 0 0 0 27 0 0 0 0 0 0 0 0 0 0 0 0 0 0 0 0 0 0 0 0 0 0 0 0 0 0 0 0 0 0 0 0 0 0 0 0 0 0 0 0 0 0 0 0 36 0 0 0 0 0 20 0 0 0 
		52 0 0 0 0 25 0 0 0 0 25 0 0 0 0 0 0 0 0 0 0 0 0 0 32 0 0 0 0 0 0 0 0 33 0 0 0 0 0 0 0 0 0 0 0 0 0 0 0 0 0 0 0 0 20 0 0 0 0 0 0 0 0 0 0 0 0 0 0 0 0 0 0 0 0 26 0 0 0 0 0 0 0 0 0 0 31 0 0 0 
		53 0 0 0 0 0 0 0 0 0 0 0 0 0 0 0 0 0 0 0 31 0 0 0 0 31 0 0 0 0 0 0 0 0 0 27 0 0 0 0 0 0 0 36 0 0 0 0 0 23 0 24 0 20 0 0 0 0 0 0 0 0 0 0 0 0 0 0 0 0 0 0 0 0 0 34 0 0 0 0 0 0 0 0 32 0 0 0 0 0 
		54 0 0 0 0 0 0 0 0 0 0 0 27 0 0 0 0 0 0 0 0 0 0 0 0 0 0 0 0 0 0 26 27 0 24 0 35 0 0 0 0 0 0 0 0 0 0 0 0 0 29 0 0 0 0 0 0 31 26 0 0 0 0 0 32 0 0 0 0 0 0 0 0 0 0 0 0 0 0 0 0 24 0 39 0 0 0 0 0 0 
		55 0 0 0 0 0 0 0 0 27 0 30 0 0 0 0 0 0 0 0 0 0 0 0 0 0 0 0 0 0 0 0 0 0 0 0 0 0 0 0 0 0 0 0 0 0 0 0 0 0 0 0 0 0 0 0 0 22 0 0 0 0 0 0 0 0 0 0 0 0 0 0 0 0 0 0 0 0 0 0 0 0 0 0 0 0 0 0 38 0 
		56 0 0 0 0 0 0 0 0 0 0 0 0 0 0 0 0 0 0 0 0 0 0 0 0 0 0 26 0 0 0 0 0 0 0 0 0 0 0 0 0 0 0 0 0 0 0 0 0 39 0 0 0 0 0 31 22 0 0 0 0 0 0 0 0 0 0 0 0 0 0 0 0 0 0 0 0 0 0 0 0 31 0 0 0 0 0 0 0 0 
		57 0 0 0 0 0 0 0 34 0 0 0 0 0 0 0 0 0 0 0 0 0 0 0 0 40 0 0 0 0 0 0 0 0 0 0 0 28 0 32 0 0 0 0 0 0 0 0 0 0 0 0 0 0 0 26 0 0 0 0 0 0 0 0 0 0 0 0 0 0 0 0 0 0 0 0 0 32 0 22 0 0 0 0 0 0 0 0 0 0 
		58 0 24 0 0 0 0 0 0 0 0 0 0 0 0 0 0 0 0 0 0 0 0 0 0 0 0 22 0 0 0 31 39 0 0 40 0 0 0 0 0 0 0 0 0 0 38 0 0 22 0 0 0 0 0 0 0 0 0 0 0 0 0 0 0 0 0 0 0 0 0 0 0 0 0 20 0 0 0 0 0 0 0 0 34 0 0 0 40 0 
		59 0 0 31 0 0 0 0 0 0 28 0 0 25 0 0 0 0 0 0 0 23 20 0 0 0 0 0 0 0 0 31 0 0 0 0 0 0 0 0 0 0 31 0 0 0 0 0 0 0 0 0 0 0 0 0 0 0 0 0 0 0 0 0 0 0 0 0 0 0 0 0 0 0 0 0 0 0 0 0 33 0 0 0 0 0 0 0 0 0 
		60 0 0 0 0 0 0 0 0 0 0 40 0 0 0 0 0 0 0 0 0 0 0 0 0 0 0 0 0 0 0 0 0 0 0 0 36 0 0 0 0 0 0 0 29 0 0 0 0 0 0 0 0 0 0 0 0 0 0 0 0 0 0 0 0 0 0 0 0 33 40 0 0 28 20 0 0 0 22 31 24 0 0 0 0 0 20 0 0 0 
		61 0 0 0 0 21 0 0 0 0 0 0 0 0 0 0 0 0 0 0 0 0 35 0 30 0 0 0 0 0 0 0 0 0 0 0 0 0 0 0 0 0 28 0 0 0 0 0 0 0 0 0 0 0 0 0 0 0 0 0 0 0 0 0 0 0 0 0 0 0 35 0 0 0 0 29 0 0 0 0 0 0 0 0 0 0 0 0 0 0 
		62 0 0 0 21 0 0 0 0 0 0 0 0 0 0 0 0 0 0 0 0 0 0 0 0 0 20 0 0 0 0 0 0 0 0 0 0 0 0 26 0 0 0 34 0 0 26 0 0 0 0 0 0 0 0 0 0 0 0 0 0 0 0 0 0 0 0 0 0 0 0 0 0 0 0 0 0 0 0 0 0 0 0 0 0 0 0 0 31 0 
		63 0 0 0 0 0 0 0 0 0 0 0 0 0 0 0 0 0 0 0 0 22 0 0 0 0 0 20 0 0 0 0 0 0 0 0 0 0 0 35 0 0 0 0 0 0 0 35 27 38 0 0 0 0 0 32 0 0 0 0 0 0 0 0 0 0 0 0 0 0 0 0 0 0 0 0 0 0 39 0 0 0 0 0 0 0 0 0 0 0 
		64 0 0 0 0 0 20 0 0 0 0 0 30 0 0 40 0 0 0 0 0 0 0 0 0 0 0 0 0 0 0 0 0 0 0 0 0 0 0 27 0 0 0 0 0 0 0 0 0 0 0 0 0 0 0 0 0 0 0 0 0 0 0 0 0 0 0 0 0 0 0 0 0 0 33 0 0 0 0 0 0 0 0 0 33 0 0 0 0 0 
		65 0 0 0 0 0 0 26 0 0 0 0 20 35 0 0 0 21 0 0 0 0 0 0 0 0 40 0 0 22 0 0 0 0 0 0 0 0 0 30 0 0 0 0 20 0 24 0 0 0 21 0 0 0 0 0 0 0 0 0 0 0 0 0 0 0 0 0 0 0 0 0 0 0 0 0 0 0 0 0 0 0 0 0 0 0 0 0 0 0 
		66 0 0 0 0 0 0 0 20 22 0 0 0 0 0 0 0 20 0 0 0 0 0 20 0 0 0 0 0 0 0 0 0 0 0 0 0 0 0 0 0 0 0 0 0 36 25 0 0 0 21 0 0 0 0 0 0 0 0 0 0 0 0 0 0 0 0 0 0 0 0 0 0 0 0 0 0 0 0 0 0 0 0 21 0 0 0 0 0 0 
		67 0 26 0 0 0 0 0 0 0 0 0 0 0 0 0 0 0 0 0 0 0 0 0 0 0 0 22 0 0 0 0 0 0 0 0 0 0 0 0 0 0 0 0 0 0 0 0 22 0 0 0 0 0 0 0 0 0 0 0 0 0 0 0 0 0 0 0 0 0 0 0 0 0 0 0 0 0 0 0 0 29 0 0 0 0 0 0 0 34 
		68 38 0 0 34 0 0 0 0 0 0 0 0 0 0 0 0 0 0 0 0 0 0 0 0 0 0 0 0 0 0 0 0 22 0 0 36 0 0 0 0 26 0 0 0 0 0 0 0 0 0 0 0 0 0 0 0 0 0 0 0 33 0 0 0 0 0 0 0 0 0 0 0 0 0 0 0 0 0 0 0 0 0 0 0 0 0 0 0 0 
		69 0 0 0 0 0 0 0 0 0 0 0 0 0 0 0 0 0 0 0 0 0 0 0 0 0 0 0 0 0 0 0 0 0 0 0 0 0 0 0 0 0 0 0 0 0 0 0 0 0 0 0 0 0 0 0 0 0 0 0 0 40 35 0 0 0 0 0 0 0 0 0 29 0 0 24 0 0 0 0 0 0 22 0 0 0 0 0 0 0 
		70 0 0 0 0 29 0 0 0 0 0 0 0 0 0 0 34 0 0 24 0 0 0 27 0 0 24 0 0 0 0 0 0 0 0 0 0 25 0 31 0 0 0 0 0 0 21 0 34 34 0 0 0 0 0 0 0 0 0 0 0 0 0 0 0 0 0 0 0 0 0 0 38 0 0 0 0 0 0 0 0 0 0 0 40 33 0 0 0 0 
		71 33 0 0 0 0 0 0 0 0 31 0 20 0 0 23 0 0 0 0 39 0 21 0 31 28 0 0 37 0 0 0 24 32 0 0 0 25 0 0 0 0 0 0 0 0 0 0 0 0 0 0 0 0 0 0 0 0 0 0 0 0 0 0 0 0 0 0 0 0 29 38 0 24 22 0 0 0 0 0 0 0 0 28 0 33 0 0 0 0 
		72 0 0 0 0 0 0 0 0 0 0 0 0 0 0 0 0 0 0 0 0 0 0 0 0 0 0 0 0 0 23 0 0 24 0 0 0 0 0 0 0 0 0 0 0 0 0 0 0 0 0 0 0 0 0 0 0 0 0 0 0 28 0 0 0 0 0 0 0 0 0 0 24 0 0 31 0 0 0 0 0 0 0 0 0 0 0 0 0 0 
		73 33 23 0 0 33 22 0 0 0 0 0 38 0 0 0 0 0 0 0 0 0 0 0 0 0 0 0 0 0 0 0 23 28 0 0 0 0 0 0 0 0 0 0 34 0 0 0 0 0 0 0 0 0 0 0 0 0 0 0 0 20 0 0 0 33 0 0 0 0 0 0 22 0 0 0 0 0 0 0 0 0 0 0 0 0 0 30 0 0 
		74 0 0 0 0 0 0 0 0 0 0 0 0 0 0 0 0 0 0 0 36 0 20 0 0 0 0 0 0 0 0 0 0 0 0 0 0 0 0 0 0 0 0 0 0 0 0 0 0 0 0 0 0 26 34 0 0 0 0 20 0 0 29 0 0 0 0 0 0 0 24 0 0 31 0 0 0 0 0 0 0 0 0 0 0 0 0 0 0 0 
		75 0 0 0 0 0 0 0 28 0 0 0 0 0 34 0 0 0 0 0 0 22 0 0 27 27 0 0 0 0 0 0 0 0 0 0 0 22 0 0 0 0 0 0 28 0 0 0 0 0 0 0 0 0 0 0 0 0 0 0 0 0 0 0 0 0 0 0 0 0 0 0 0 0 0 0 0 0 24 0 22 0 25 0 0 31 0 0 0 0 
		76 0 0 0 0 0 0 0 0 36 0 0 0 0 0 31 0 24 0 0 0 25 0 29 0 0 0 0 0 0 0 0 0 0 0 0 0 0 0 0 0 0 0 0 0 0 34 0 0 21 0 0 0 0 0 0 0 0 32 0 0 0 0 0 0 0 0 0 0 0 0 0 0 0 0 0 0 0 0 0 0 26 0 0 0 0 23 0 0 0 
		77 0 0 0 0 31 0 0 0 0 20 0 0 39 0 0 0 0 0 0 0 0 0 0 0 0 0 0 0 0 0 0 0 0 0 0 36 0 0 0 0 0 0 0 0 0 0 0 0 0 0 0 0 0 0 0 0 0 0 0 0 22 0 0 39 0 0 0 0 0 0 0 0 0 0 0 24 0 0 0 0 0 0 0 36 0 0 0 0 0 
		78 0 0 0 0 0 0 0 0 33 0 0 0 34 0 0 0 0 0 0 0 0 0 22 0 0 0 0 0 0 23 0 0 0 0 0 0 0 0 0 0 0 0 0 0 0 0 0 0 0 0 0 0 0 0 0 0 0 22 0 0 31 0 0 0 0 0 0 0 0 0 0 0 0 0 0 0 0 0 0 0 0 0 0 0 0 0 0 0 0 
		79 36 0 0 0 0 0 0 0 0 0 0 0 0 0 0 0 0 0 0 0 0 0 0 0 0 0 0 0 0 0 0 0 40 0 33 0 0 24 0 0 24 0 0 0 0 0 0 0 0 0 0 36 0 0 0 0 0 0 0 33 24 0 0 0 0 0 0 0 0 0 0 0 0 0 0 22 0 0 0 0 0 0 0 0 0 0 0 0 0 
		80 0 0 0 0 0 0 0 0 0 0 0 0 0 0 27 0 0 0 0 0 22 0 0 0 0 0 0 0 0 0 0 0 0 37 0 0 0 0 0 0 0 0 0 0 0 0 0 0 0 0 0 0 0 0 24 0 31 0 0 0 0 0 0 0 0 0 0 29 0 0 0 0 0 0 0 0 26 0 0 0 0 27 0 0 0 39 0 37 0 
		81 20 29 0 0 0 0 0 0 0 0 0 23 0 0 0 0 0 40 0 0 0 0 0 0 0 0 31 0 0 0 0 0 39 24 26 0 0 0 0 0 0 0 0 0 0 0 0 0 0 0 0 0 0 0 0 0 0 0 0 0 0 0 0 0 0 0 0 0 0 22 0 0 0 0 0 25 0 0 0 0 27 0 0 36 0 0 0 22 0 
		82 0 24 0 0 0 0 0 0 23 0 0 0 0 0 0 0 0 20 0 0 0 0 0 0 0 0 0 0 0 0 0 0 0 0 0 0 0 0 0 0 0 38 0 0 0 0 0 0 0 0 0 0 0 0 39 0 0 0 0 0 0 0 0 0 0 0 21 0 0 0 0 28 0 0 0 0 0 0 0 0 0 0 0 0 0 0 0 0 20 
		83 37 0 0 0 0 0 0 0 0 0 22 33 0 0 28 0 0 0 21 0 0 0 0 0 27 0 37 0 0 0 0 0 0 0 0 0 31 0 0 0 0 0 0 0 0 0 0 0 0 29 0 0 0 32 0 0 0 0 34 0 0 0 0 0 33 0 0 0 0 0 40 0 0 0 0 0 0 36 0 0 0 36 0 0 0 0 21 0 0 
		84 0 0 0 0 0 0 0 33 0 0 23 0 0 0 0 0 0 0 39 0 0 0 0 0 0 0 0 0 0 0 0 0 0 0 0 0 0 0 0 0 0 0 0 37 0 0 36 0 0 0 0 0 0 0 0 0 0 0 0 0 0 0 0 0 0 0 0 0 0 0 33 33 0 0 0 31 0 0 0 0 0 0 0 0 0 0 0 0 0 
		85 0 0 0 0 0 35 0 0 0 0 0 0 0 0 40 0 0 0 0 0 0 0 0 0 0 0 0 0 0 0 0 0 0 24 0 31 0 0 0 0 0 0 0 0 0 0 0 0 39 0 34 20 31 0 0 0 0 0 0 0 20 0 0 0 0 0 0 0 0 0 0 0 0 0 0 0 23 0 0 0 39 0 0 0 0 0 0 0 0 
		86 0 0 0 0 0 0 0 0 0 0 0 0 0 0 0 0 0 0 32 39 0 0 0 0 22 0 0 39 0 0 0 0 39 0 0 0 0 0 0 0 0 0 0 0 0 0 0 0 0 0 0 0 0 0 0 0 0 0 0 0 0 0 0 0 0 0 0 0 0 0 0 0 0 30 0 0 0 0 0 0 0 0 0 21 0 0 0 0 0 
		87 0 0 0 20 0 0 0 0 0 0 0 0 28 0 34 0 0 0 0 0 0 0 0 0 0 0 0 0 38 0 0 0 0 0 0 0 0 0 0 0 0 0 0 0 0 0 0 0 0 0 0 0 0 0 0 38 0 0 40 0 0 0 31 0 0 0 0 0 0 0 0 0 0 0 0 0 0 0 0 0 37 22 0 0 0 0 0 0 0 
		88 0 0 0 0 0 0 0 0 40 30 0 0 39 0 0 0 0 0 0 0 0 0 0 0 27 0 0 0 0 0 29 0 31 0 0 0 0 0 0 0 0 31 0 0 0 0 0 0 0 0 0 0 0 0 0 0 0 0 0 0 0 0 0 0 0 0 0 34 0 0 0 0 0 0 0 0 0 0 0 0 0 0 20 0 0 0 0 0 0 
;
